70
1 0 1
3 0 5
3 1 1
5 0 5
5 2 2
5 3 3
6 1 1
6 5 5
7 2 4
7 4 1
7 5 4
7 6 1
8 0 4
8 6 3
8 7 4
9 0 2
9 1 1
9 5 1
9 7 5
10 1 4
10 3 4
10 4 2
10 6 2
11 0 1
11 1 1
11 2 3
11 3 1
11 5 4
11 9 1
12 2 5
12 5 2
12 8 4
12 9 4
13 1 2
13 3 4
13 6 5
13 7 4
13 8 2
13 10 4
13 11 1
14 1 5
14 2 3
14 3 4
14 5 4
14 7 2
14 9 1
14 10 2
14 11 4
14 13 1
15 1 4
15 2 3
15 5 1
15 6 4
15 9 5
15 11 3
15 14 4
16 0 2
16 3 1
16 6 2
16 7 2
16 8 4
16 12 5
16 13 2
16 14 3
16 15 3
17 1 2
17 4 2
17 6 1
17 9 2
17 11 1
17 12 3
17 13 3
17 15 2
17 16 3
18 0 4
18 3 4
18 6 4
18 7 5
18 10 1
18 11 5
18 12 3
18 14 2
18 17 1
19 4 2
19 5 5
19 7 2
19 10 2
19 14 4
19 15 4
19 16 2
20 0 2
20 1 2
20 7 1
20 9 2
20 11 4
20 14 1
20 15 4
20 16 1
21 1 4
21 2 1
21 3 4
21 6 2
21 7 1
21 8 5
21 11 2
21 12 5
21 14 4
21 15 5
21 16 2
22 1 3
22 2 2
22 3 1
22 4 2
22 6 1
22 8 2
22 9 2
22 12 5
22 13 5
22 14 2
22 15 2
22 16 5
22 17 5
22 18 4
22 20 1
22 21 1
23 0 5
23 1 2
23 3 3
23 6 2
23 9 4
23 15 2
23 16 1
23 17 3
24 0 1
24 1 5
24 4 2
24 6 4
24 7 1
24 8 5
24 13 3
24 14 1
24 17 1
24 18 3
24 19 5
24 21 3
24 22 5
24 23 1
25 0 2
25 1 5
25 2 1
25 6 4
25 9 5
25 10 3
25 11 2
25 12 3
25 17 4
25 20 5
25 23 4
25 24 4
26 0 2
26 3 3
26 4 2
26 5 2
26 6 2
26 7 4
26 10 5
26 11 3
26 13 3
26 15 4
26 17 3
26 18 2
26 19 2
26 20 5
26 21 3
26 23 4
26 25 4
27 0 2
27 4 5
27 5 5
27 7 1
27 10 3
27 14 4
27 16 5
27 21 2
27 22 2
27 26 2
28 3 1
28 5 3
28 6 5
28 8 5
28 9 4
28 10 4
28 13 2
28 14 4
28 15 5
28 16 3
28 18 4
28 19 1
28 21 3
28 23 3
28 25 1
28 26 5
28 27 1
29 0 5
29 3 3
29 5 4
29 6 3
29 8 2
29 12 2
29 13 5
29 14 2
29 15 5
29 18 3
29 19 4
29 22 3
29 23 5
29 24 4
30 0 5
30 1 4
30 2 1
30 6 3
30 9 5
30 16 5
30 17 3
30 22 5
30 24 2
30 27 1
30 28 4
30 29 5
31 0 5
31 1 2
31 2 4
31 3 5
31 4 4
31 6 2
31 8 4
31 9 5
31 10 3
31 11 1
31 13 2
31 15 1
31 16 5
31 17 1
31 18 2
32 0 4
32 2 3
32 5 3
32 7 4
32 8 1
32 9 2
32 10 2
32 11 5
32 12 3
32 14 4
32 17 1
32 19 5
32 23 3
32 24 2
32 25 2
32 27 3
32 31 4
33 0 5
33 1 1
33 2 5
33 5 5
33 8 5
33 10 5
33 11 2
33 13 3
33 17 1
33 20 5
33 22 2
33 23 2
33 25 1
33 26 2
33 28 3
34 0 4
34 1 3
34 7 2
34 9 1
34 13 4
34 14 4
34 18 4
34 22 1
34 24 2
34 25 1
34 27 5
34 28 5
34 33 5
35 0 3
35 1 1
35 9 2
35 10 4
35 12 4
35 13 5
35 14 4
35 19 1
35 21 5
35 22 5
35 24 2
35 25 3
35 27 2
35 28 1
35 30 2
35 31 2
35 32 4
36 0 3
36 1 3
36 2 3
36 5 5
36 7 4
36 11 5
36 13 2
36 15 1
36 17 2
36 18 2
36 19 2
36 22 4
36 23 1
36 24 4
36 30 2
36 31 5
36 32 5
36 33 5
36 34 1
36 35 3
37 0 4
37 2 4
37 6 4
37 9 4
37 10 4
37 11 3
37 12 5
37 13 5
37 14 2
37 15 3
37 21 2
37 22 1
37 23 3
37 26 5
37 28 1
37 29 4
37 31 3
37 33 4
37 36 5
38 4 3
38 9 3
38 10 3
38 14 2
38 15 4
38 16 2
38 17 1
38 18 3
38 20 3
38 23 5
38 24 5
38 25 1
38 26 5
38 34 1
39 0 4
39 3 4
39 4 5
39 6 5
39 8 3
39 10 2
39 16 5
39 17 5
39 18 1
39 19 3
39 20 5
39 21 3
39 25 4
39 27 4
39 31 3
39 34 3
40 0 1
40 1 1
40 3 2
40 4 1
40 5 4
40 6 4
40 7 1
40 8 4
40 12 4
40 13 4
40 16 2
40 21 5
40 22 2
40 23 2
40 24 1
40 25 1
40 28 2
40 32 3
40 34 5
40 35 5
41 0 4
41 1 1
41 3 1
41 4 3
41 6 3
41 8 3
41 11 4
41 12 1
41 19 2
41 21 1
41 25 3
41 26 2
41 34 1
41 35 1
41 37 2
41 39 4
42 0 3
42 3 5
42 6 1
42 7 1
42 10 3
42 15 4
42 16 1
42 17 4
42 20 4
42 21 1
42 22 4
42 23 4
42 26 4
42 27 4
42 28 3
42 30 4
42 32 1
42 33 2
42 34 1
42 35 5
42 38 3
42 40 5
43 0 1
43 3 2
43 5 3
43 6 5
43 9 5
43 10 5
43 11 5
43 12 1
43 13 1
43 14 3
43 15 4
43 22 1
43 23 2
43 24 4
43 27 3
43 28 5
43 29 4
43 36 5
43 37 3
43 40 3
43 41 5
43 42 2
44 0 5
44 1 5
44 2 1
44 3 5
44 5 5
44 6 2
44 7 5
44 8 3
44 9 4
44 13 1
44 20 3
44 21 3
44 22 3
44 25 1
44 26 1
44 28 5
44 29 1
44 32 4
44 34 3
44 37 1
44 39 3
44 41 4
44 43 2
45 3 5
45 5 5
45 7 2
45 8 1
45 11 5
45 14 1
45 20 1
45 21 1
45 23 1
45 24 5
45 26 2
45 29 4
45 30 5
45 33 5
45 34 3
45 35 5
45 42 3
46 3 5
46 5 5
46 8 4
46 9 2
46 10 1
46 14 4
46 15 3
46 16 3
46 19 2
46 20 5
46 22 1
46 23 4
46 25 4
46 26 4
46 27 3
46 33 3
46 34 2
46 37 3
46 39 4
46 40 2
46 44 4
47 1 2
47 2 2
47 5 3
47 7 5
47 9 2
47 10 2
47 11 1
47 15 3
47 18 5
47 22 1
47 24 2
47 26 5
47 27 3
47 32 3
47 36 1
47 38 2
47 40 5
47 43 3
47 44 4
48 1 1
48 2 4
48 5 1
48 9 4
48 15 1
48 16 3
48 17 3
48 18 3
48 19 5
48 22 5
48 24 2
48 25 4
48 26 1
48 27 3
48 35 1
48 37 2
48 39 2
48 40 3
48 41 5
48 42 4
48 45 3
48 46 4
49 2 5
49 3 5
49 4 4
49 6 3
49 7 5
49 8 3
49 9 3
49 10 4
49 12 3
49 15 3
49 19 5
49 20 3
49 22 4
49 23 4
49 28 3
49 29 3
49 30 5
49 32 2
49 34 3
49 35 5
49 36 1
49 37 1
49 41 3
49 42 4
49 43 4
49 44 1
49 45 4
49 48 5
50 2 5
50 7 1
50 8 3
50 10 5
50 11 5
50 12 2
50 13 5
50 16 2
50 17 4
50 21 5
50 22 3
50 26 2
50 28 3
50 29 1
50 30 1
50 33 1
50 35 3
50 37 3
50 39 5
50 40 4
50 41 4
50 42 5
50 43 2
50 45 4
50 49 4
51 0 4
51 2 1
51 4 2
51 6 5
51 9 4
51 13 2
51 14 2
51 18 3
51 19 2
51 23 2
51 24 1
51 26 4
51 27 4
51 29 1
51 30 2
51 31 2
51 33 3
51 34 3
51 40 4
51 41 5
51 43 2
51 45 4
51 48 3
52 0 1
52 1 4
52 3 2
52 5 2
52 7 1
52 8 3
52 9 5
52 11 1
52 12 2
52 15 4
52 18 2
52 23 3
52 24 5
52 25 5
52 26 2
52 28 5
52 32 2
52 33 3
52 35 4
52 36 1
52 38 2
52 42 2
52 43 2
53 0 1
53 2 5
53 7 5
53 8 2
53 10 5
53 13 2
53 15 4
53 18 1
53 21 5
53 26 2
53 27 5
53 28 5
53 32 2
53 33 4
53 36 5
53 39 5
53 41 3
53 42 3
53 44 5
53 45 5
53 47 4
53 48 2
53 49 3
53 50 1
53 51 4
54 2 1
54 3 2
54 5 5
54 6 3
54 9 3
54 12 4
54 13 4
54 14 1
54 15 4
54 16 3
54 19 1
54 20 1
54 23 4
54 25 1
54 28 5
54 31 2
54 32 5
54 33 2
54 34 1
54 36 3
54 37 4
54 42 4
54 45 2
54 46 5
54 50 4
54 51 4
55 1 5
55 3 1
55 6 3
55 7 2
55 9 1
55 11 3
55 12 3
55 13 1
55 15 3
55 17 4
55 18 4
55 19 2
55 22 5
55 23 4
55 24 1
55 26 1
55 27 2
55 33 1
55 37 4
55 38 2
55 39 5
55 40 4
55 41 5
55 43 1
55 44 5
55 47 4
55 48 1
55 50 2
55 51 5
55 52 4
56 0 3
56 1 5
56 2 1
56 7 2
56 9 4
56 12 1
56 14 2
56 15 4
56 16 3
56 18 4
56 20 5
56 21 5
56 23 5
56 25 4
56 26 3
56 27 5
56 28 3
56 29 4
56 30 3
56 31 3
56 32 1
56 33 3
56 36 2
56 37 4
56 40 3
56 42 4
56 45 3
56 46 2
56 51 3
56 54 5
56 55 3
57 1 3
57 4 5
57 8 5
57 9 5
57 10 3
57 13 5
57 16 2
57 17 5
57 18 2
57 19 1
57 22 3
57 23 5
57 24 2
57 25 2
57 30 4
57 31 4
57 33 1
57 34 5
57 35 4
57 36 1
57 37 4
57 39 5
57 42 3
57 45 4
57 46 1
57 49 4
57 51 2
57 52 2
57 54 1
58 1 2
58 4 1
58 7 2
58 10 5
58 11 5
58 13 4
58 14 3
58 15 4
58 16 4
58 17 1
58 19 5
58 20 5
58 21 2
58 24 1
58 26 4
58 28 3
58 32 3
58 34 2
58 35 4
58 37 1
58 38 4
58 42 4
58 45 5
58 46 4
58 48 5
58 50 5
58 51 2
58 52 2
58 55 4
58 56 3
58 57 1
59 1 4
59 2 4
59 4 2
59 6 5
59 9 4
59 10 1
59 12 5
59 13 1
59 14 4
59 16 3
59 17 3
59 18 3
59 21 2
59 22 1
59 25 1
59 28 4
59 29 4
59 30 3
59 31 1
59 32 4
59 33 3
59 40 1
59 41 2
59 43 4
59 44 3
59 45 2
59 47 1
59 50 4
59 52 4
59 55 2
59 58 3
60 0 1
60 1 1
60 2 1
60 3 4
60 5 3
60 10 4
60 11 5
60 12 5
60 13 5
60 15 3
60 16 2
60 17 3
60 20 4
60 22 1
60 23 5
60 26 5
60 27 5
60 29 3
60 30 1
60 32 5
60 38 4
60 40 2
60 43 2
60 46 3
60 47 1
60 48 2
60 49 3
60 52 5
60 54 4
60 55 2
60 58 4
61 0 2
61 1 3
61 2 2
61 3 4
61 4 1
61 5 5
61 8 5
61 9 5
61 10 3
61 11 5
61 13 3
61 14 5
61 15 2
61 16 3
61 17 5
61 20 5
61 21 5
61 23 2
61 25 1
61 26 4
61 28 3
61 30 5
61 31 3
61 34 2
61 35 5
61 38 5
61 39 3
61 40 5
61 41 2
61 45 1
61 48 5
61 49 5
61 50 4
61 52 2
61 53 2
61 54 2
61 55 5
61 60 5
62 4 1
62 5 4
62 8 1
62 9 4
62 11 1
62 12 3
62 13 4
62 15 4
62 16 3
62 18 2
62 19 3
62 20 5
62 22 4
62 27 5
62 30 5
62 31 4
62 33 5
62 34 3
62 35 4
62 36 5
62 39 3
62 41 5
62 43 1
62 45 1
62 47 5
62 49 3
62 53 4
62 54 4
62 55 3
62 56 4
62 57 1
62 59 3
63 0 5
63 1 2
63 3 2
63 6 1
63 7 4
63 8 5
63 9 4
63 10 2
63 12 2
63 13 2
63 14 4
63 15 1
63 17 2
63 18 1
63 21 1
63 25 5
63 26 3
63 27 1
63 28 1
63 29 4
63 30 5
63 32 1
63 33 1
63 36 5
63 38 2
63 40 5
63 48 4
63 50 3
63 56 2
63 59 3
63 62 3
64 0 1
64 1 5
64 2 4
64 3 4
64 5 4
64 6 3
64 7 5
64 9 1
64 11 3
64 12 1
64 14 2
64 15 2
64 18 4
64 24 2
64 25 2
64 26 4
64 27 4
64 28 4
64 29 4
64 31 2
64 32 1
64 33 4
64 35 4
64 36 2
64 39 1
64 40 3
64 42 1
64 43 3
64 45 1
64 46 5
64 48 2
64 51 4
64 52 3
64 54 2
64 57 4
64 60 3
64 62 3
65 0 2
65 1 2
65 2 3
65 5 3
65 6 2
65 7 5
65 8 5
65 12 2
65 13 3
65 14 2
65 20 5
65 22 3
65 27 3
65 28 3
65 31 1
65 32 3
65 33 3
65 39 2
65 40 1
65 41 5
65 42 2
65 48 4
65 51 4
65 52 5
65 57 2
65 60 3
65 61 2
65 62 3
65 64 3
66 3 3
66 4 1
66 7 4
66 8 4
66 11 2
66 12 1
66 13 5
66 15 4
66 24 5
66 25 2
66 27 1
66 28 4
66 30 4
66 31 4
66 34 2
66 35 3
66 36 3
66 37 3
66 38 3
66 39 4
66 40 1
66 41 4
66 44 4
66 45 1
66 46 3
66 48 3
66 51 2
66 52 3
66 53 4
66 54 1
66 55 4
66 56 5
66 59 2
66 60 2
66 61 1
67 4 1
67 5 2
67 6 3
67 7 2
67 10 4
67 12 5
67 13 4
67 16 3
67 20 5
67 21 1
67 25 3
67 27 3
67 29 1
67 30 2
67 31 2
67 32 1
67 36 4
67 37 2
67 38 3
67 40 5
67 45 1
67 46 4
67 47 3
67 50 2
67 51 2
67 52 2
67 53 5
67 55 2
67 56 3
67 59 3
67 60 2
67 61 5
67 63 5
68 0 3
68 3 2
68 4 3
68 5 5
68 7 5
68 9 1
68 15 4
68 18 3
68 19 3
68 20 2
68 21 2
68 22 5
68 23 1
68 26 4
68 27 3
68 28 2
68 30 2
68 33 1
68 34 1
68 35 1
68 36 5
68 37 3
68 40 5
68 41 2
68 42 2
68 43 5
68 45 2
68 46 3
68 48 4
68 50 1
68 52 1
68 53 4
68 54 1
68 57 5
68 59 3
68 63 4
68 64 1
68 67 2
69 1 3
69 2 5
69 7 2
69 8 4
69 9 4
69 10 3
69 11 3
69 12 2
69 14 1
69 15 1
69 16 1
69 17 5
69 18 2
69 27 1
69 28 2
69 30 3
69 33 3
69 34 3
69 35 1
69 36 4
69 37 3
69 38 1
69 43 5
69 47 3
69 48 5
69 50 1
69 52 4
69 53 3
69 54 4
69 56 4
69 58 5
69 60 2
69 63 2
69 65 4
69 66 1
